NAME          
ROWS
 N  OBJ
 L  c1_1
 L  c2_1
 L  c3_1
 L  c4_1
 L  c5_1
 G  c1
 G  c2
 G  c3
 G  c4
 G  c5
COLUMNS
    ss[1]     c1        1
    ss[1]     OBJ       1000
    ss[2]     c2        1
    ss[2]     OBJ       1000
    ss[3]     c3        1
    ss[3]     OBJ       1000
    ss[4]     c4        1
    ss[4]     OBJ       1000
    ss[5]     c5        1
    ss[5]     OBJ       1000
    s[1]      c1_1      1
    s[1]      OBJ       -1000
    s[2]      c2_1      1
    s[2]      OBJ       -1000
    s[3]      c3_1      1
    s[3]      OBJ       -1000
    s[4]      c4_1      1
    s[4]      OBJ       -1000
    s[5]      c5_1      1
    s[5]      OBJ       -1000
    MARKER    'MARKER'                 'INTORG'
    x[1]      c1_1      42
    x[1]      c2_1      509
    x[1]      c3_1      806
    x[1]      c4_1      404
    x[1]      c5_1      475
    x[1]      c1        556
    x[1]      c2        413
    x[1]      c3        907
    x[1]      c4        547
    x[1]      c5        599
    x[1]      OBJ       -322
    x[2]      c1_1      41
    x[2]      c2_1      883
    x[2]      c3_1      361
    x[2]      c4_1      197
    x[2]      c5_1      36
    x[2]      c1        125
    x[2]      c2        794
    x[2]      c3        447
    x[2]      c4        399
    x[2]      c5        63
    x[2]      OBJ       -797
    x[3]      c1_1      523
    x[3]      c2_1      229
    x[3]      c3_1      199
    x[3]      c4_1      817
    x[3]      c5_1      287
    x[3]      c1        736
    x[3]      c2        494
    x[3]      c3        158
    x[3]      c4        669
    x[3]      c5        627
    x[3]      OBJ       -433
    x[4]      c1_1      215
    x[4]      c2_1      569
    x[4]      c3_1      781
    x[4]      c4_1      1000
    x[4]      c5_1      577
    x[4]      c1        557
    x[4]      c2        821
    x[4]      c3        840
    x[4]      c4        818
    x[4]      c5        495
    x[4]      OBJ       -771
    x[5]      c1_1      819
    x[5]      c2_1      706
    x[5]      c3_1      596
    x[5]      c4_1      44
    x[5]      c5_1      45
    x[5]      c1        301
    x[5]      c2        348
    x[5]      c3        440
    x[5]      c4        623
    x[5]      c5        55
    x[5]      OBJ       -725
    x[6]      c1_1      551
    x[6]      c2_1      639
    x[6]      c3_1      669
    x[6]      c4_1      307
    x[6]      c5_1      700
    x[6]      c1        6
    x[6]      c2        961
    x[6]      c3        413
    x[6]      c4        164
    x[6]      c5        314
    x[6]      OBJ       -612
    x[7]      c1_1      69
    x[7]      c2_1      114
    x[7]      c3_1      957
    x[7]      c4_1      39
    x[7]      c5_1      803
    x[7]      c1        111
    x[7]      c2        63
    x[7]      c3        75
    x[7]      c4        859
    x[7]      c5        599
    x[7]      OBJ       -753
    x[8]      c1_1      193
    x[8]      c2_1      727
    x[8]      c3_1      358
    x[8]      c4_1      659
    x[8]      c5_1      654
    x[8]      c1        16
    x[8]      c2        962
    x[8]      c3        682
    x[8]      c4        960
    x[8]      c5        374
    x[8]      OBJ       -329
    x[9]      c1_1      582
    x[9]      c2_1      491
    x[9]      c3_1      259
    x[9]      c4_1      46
    x[9]      c5_1      196
    x[9]      c1        704
    x[9]      c2        799
    x[9]      c3        936
    x[9]      c4        509
    x[9]      c5        472
    x[9]      OBJ       -273
    x[10]     c1_1      375
    x[10]     c2_1      481
    x[10]     c3_1      888
    x[10]     c4_1      334
    x[10]     c5_1      844
    x[10]     c1        952
    x[10]     c2        242
    x[10]     c3        933
    x[10]     c4        365
    x[10]     c5        554
    x[10]     OBJ       -661
    x[11]     c1_1      367
    x[11]     c2_1      681
    x[11]     c3_1      319
    x[11]     c4_1      448
    x[11]     c5_1      657
    x[11]     c1        408
    x[11]     c2        352
    x[11]     c3        753
    x[11]     c4        351
    x[11]     c5        946
    x[11]     OBJ       -788
    x[12]     c1_1      478
    x[12]     c2_1      948
    x[12]     c3_1      751
    x[12]     c4_1      599
    x[12]     c5_1      387
    x[12]     c1        492
    x[12]     c2        337
    x[12]     c3        47
    x[12]     c4        949
    x[12]     c5        583
    x[12]     OBJ       -921
    x[13]     c1_1      162
    x[13]     c2_1      687
    x[13]     c3_1      275
    x[13]     c4_1      931
    x[13]     c5_1      518
    x[13]     c1        163
    x[13]     c2        111
    x[13]     c3        488
    x[13]     c4        25
    x[13]     c5        359
    x[13]     OBJ       -1114
    x[14]     c1_1      898
    x[14]     c2_1      941
    x[14]     c3_1      177
    x[14]     c4_1      776
    x[14]     c5_1      143
    x[14]     c1        938
    x[14]     c2        559
    x[14]     c3        649
    x[14]     c4        197
    x[14]     c5        675
    x[14]     OBJ       -470
    x[15]     c1_1      550
    x[15]     c2_1      350
    x[15]     c3_1      883
    x[15]     c4_1      263
    x[15]     c5_1      515
    x[15]     c1        315
    x[15]     c2        889
    x[15]     c3        475
    x[15]     c4        264
    x[15]     c5        87
    x[15]     OBJ       -767
    x[16]     c1_1      553
    x[16]     c2_1      253
    x[16]     c3_1      749
    x[16]     c4_1      980
    x[16]     c5_1      335
    x[16]     c1        949
    x[16]     c2        595
    x[16]     c3        88
    x[16]     c4        678
    x[16]     c5        563
    x[16]     OBJ       -711
    x[17]     c1_1      298
    x[17]     c2_1      573
    x[17]     c3_1      229
    x[17]     c4_1      807
    x[17]     c5_1      942
    x[17]     c1        670
    x[17]     c2        914
    x[17]     c3        464
    x[17]     c4        581
    x[17]     c5        150
    x[17]     OBJ       -523
    x[18]     c1_1      577
    x[18]     c2_1      40
    x[18]     c3_1      265
    x[18]     c4_1      378
    x[18]     c5_1      701
    x[18]     c1        1000
    x[18]     c2        576
    x[18]     c3        50
    x[18]     c4        500
    x[18]     c5        661
    x[18]     OBJ       -242
    x[19]     c1_1      493
    x[19]     c2_1      124
    x[19]     c3_1      282
    x[19]     c4_1      278
    x[19]     c5_1      332
    x[19]     c1        457
    x[19]     c2        312
    x[19]     c3        485
    x[19]     c4        285
    x[19]     c5        58
    x[19]     OBJ       -388
    x[20]     c1_1      183
    x[20]     c2_1      384
    x[20]     c3_1      694
    x[20]     c4_1      841
    x[20]     c5_1      803
    x[20]     c1        816
    x[20]     c2        323
    x[20]     c3        672
    x[20]     c4        422
    x[20]     c5        523
    x[20]     OBJ       -820
    x[21]     c1_1      260
    x[21]     c2_1      660
    x[21]     c3_1      819
    x[21]     c4_1      700
    x[21]     c5_1      265
    x[21]     c1        357
    x[21]     c2        153
    x[21]     c3        254
    x[21]     c4        802
    x[21]     c5        885
    x[21]     OBJ       -696
    x[22]     c1_1      224
    x[22]     c2_1      951
    x[22]     c3_1      77
    x[22]     c4_1      210
    x[22]     c5_1      922
    x[22]     c1        495
    x[22]     c2        888
    x[22]     c3        171
    x[22]     c4        200
    x[22]     c5        946
    x[22]     OBJ       -655
    x[23]     c1_1      852
    x[23]     c2_1      739
    x[23]     c3_1      190
    x[23]     c4_1      542
    x[23]     c5_1      908
    x[23]     c1        916
    x[23]     c2        287
    x[23]     c3        548
    x[23]     c4        287
    x[23]     c5        125
    x[23]     OBJ       -728
    x[24]     c1_1      394
    x[24]     c2_1      329
    x[24]     c3_1      551
    x[24]     c4_1      636
    x[24]     c5_1      139
    x[24]     c1        852
    x[24]     c2        627
    x[24]     c3        202
    x[24]     c4        968
    x[24]     c5        544
    x[24]     OBJ       -656
    x[25]     c1_1      958
    x[25]     c2_1      146
    x[25]     c3_1      140
    x[25]     c4_1      388
    x[25]     c5_1      995
    x[25]     c1        614
    x[25]     c2        888
    x[25]     c3        227
    x[25]     c4        674
    x[25]     c5        318
    x[25]     OBJ       -615
    x[26]     c1_1      282
    x[26]     c2_1      593
    x[26]     c3_1      442
    x[26]     c4_1      129
    x[26]     c5_1      845
    x[26]     c1        161
    x[26]     c2        634
    x[26]     c3        673
    x[26]     c4        379
    x[26]     c5        593
    x[26]     OBJ       -804
    x[27]     c1_1      402
    x[27]     c2_1      658
    x[27]     c3_1      867
    x[27]     c4_1      203
    x[27]     c5_1      487
    x[27]     c1        60
    x[27]     c2        424
    x[27]     c3        888
    x[27]     c4        733
    x[27]     c5        647
    x[27]     OBJ       -779
    x[28]     c1_1      604
    x[28]     c2_1      816
    x[28]     c3_1      283
    x[28]     c4_1      110
    x[28]     c5_1      100
    x[28]     c1        382
    x[28]     c2        365
    x[28]     c3        176
    x[28]     c4        455
    x[28]     c5        299
    x[28]     OBJ       -822
    x[29]     c1_1      164
    x[29]     c2_1      638
    x[29]     c3_1      137
    x[29]     c4_1      817
    x[29]     c5_1      447
    x[29]     c1        373
    x[29]     c2        374
    x[29]     c3        82
    x[29]     c4        956
    x[29]     c5        47
    x[29]     OBJ       -948
    x[30]     c1_1      308
    x[30]     c2_1      717
    x[30]     c3_1      359
    x[30]     c4_1      502
    x[30]     c5_1      653
    x[30]     c1        570
    x[30]     c2        85
    x[30]     c3        811
    x[30]     c4        967
    x[30]     c5        898
    x[30]     OBJ       -320
    x[31]     c1_1      218
    x[31]     c2_1      779
    x[31]     c3_1      445
    x[31]     c4_1      657
    x[31]     c5_1      649
    x[31]     c1        182
    x[31]     c2        650
    x[31]     c3        292
    x[31]     c4        829
    x[31]     c5        462
    x[31]     OBJ       -549
    x[32]     c1_1      61
    x[32]     c2_1      289
    x[32]     c3_1      58
    x[32]     c4_1      804
    x[32]     c5_1      738
    x[32]     c1        934
    x[32]     c2        265
    x[32]     c3        522
    x[32]     c4        154
    x[32]     c5        502
    x[32]     OBJ       -381
    x[33]     c1_1      273
    x[33]     c2_1      430
    x[33]     c3_1      440
    x[33]     c4_1      662
    x[33]     c5_1      424
    x[33]     c1        129
    x[33]     c2        711
    x[33]     c3        717
    x[33]     c4        902
    x[33]     c5        572
    x[33]     OBJ       -703
    x[34]     c1_1      772
    x[34]     c2_1      851
    x[34]     c3_1      192
    x[34]     c4_1      989
    x[34]     c5_1      475
    x[34]     c1        542
    x[34]     c2        204
    x[34]     c3        592
    x[34]     c4        240
    x[34]     c5        556
    x[34]     OBJ       -874
    x[35]     c1_1      191
    x[35]     c2_1      937
    x[35]     c3_1      485
    x[35]     c4_1      585
    x[35]     c5_1      425
    x[35]     c1        767
    x[35]     c2        816
    x[35]     c3        235
    x[35]     c4        70
    x[35]     c5        361
    x[35]     OBJ       -548
    x[36]     c1_1      117
    x[36]     c2_1      289
    x[36]     c3_1      744
    x[36]     c4_1      645
    x[36]     c5_1      926
    x[36]     c1        964
    x[36]     c2        595
    x[36]     c3        398
    x[36]     c4        212
    x[36]     c5        385
    x[36]     OBJ       -552
    x[37]     c1_1      276
    x[37]     c2_1      159
    x[37]     c3_1      844
    x[37]     c4_1      113
    x[37]     c5_1      795
    x[37]     c1        896
    x[37]     c2        111
    x[37]     c3        519
    x[37]     c4        878
    x[37]     c5        464
    x[37]     OBJ       -430
    x[38]     c1_1      877
    x[38]     c2_1      260
    x[38]     c3_1      969
    x[38]     c4_1      436
    x[38]     c5_1      47
    x[38]     c1        350
    x[38]     c2        707
    x[38]     c3        987
    x[38]     c4        160
    x[38]     c5        105
    x[38]     OBJ       -677
    x[39]     c1_1      415
    x[39]     c2_1      930
    x[39]     c3_1      50
    x[39]     c4_1      610
    x[39]     c5_1      136
    x[39]     c1        178
    x[39]     c2        774
    x[39]     c3        937
    x[39]     c4        900
    x[39]     c5        533
    x[39]     OBJ       -377
    x[40]     c1_1      873
    x[40]     c2_1      248
    x[40]     c3_1      833
    x[40]     c4_1      948
    x[40]     c5_1      801
    x[40]     c1        557
    x[40]     c2        138
    x[40]     c3        12
    x[40]     c4        594
    x[40]     c5        83
    x[40]     OBJ       -1330
    x[41]     c1_1      902
    x[41]     c2_1      656
    x[41]     c3_1      57
    x[41]     c4_1      919
    x[41]     c5_1      904
    x[41]     c1        975
    x[41]     c2        687
    x[41]     c3        599
    x[41]     c4        582
    x[41]     c5        1
    x[41]     OBJ       -603
    x[42]     c1_1      465
    x[42]     c2_1      833
    x[42]     c3_1      877
    x[42]     c4_1      115
    x[42]     c5_1      740
    x[42]     c1        70
    x[42]     c2        131
    x[42]     c3        414
    x[42]     c4        365
    x[42]     c5        112
    x[42]     OBJ       -829
    x[43]     c1_1      320
    x[43]     c2_1      892
    x[43]     c3_1      482
    x[43]     c4_1      967
    x[43]     c5_1      768
    x[43]     c1        226
    x[43]     c2        279
    x[43]     c3        362
    x[43]     c4        49
    x[43]     c5        323
    x[43]     OBJ       -949
    x[44]     c1_1      870
    x[44]     c2_1      60
    x[44]     c3_1      732
    x[44]     c4_1      13
    x[44]     c5_1      460
    x[44]     c1        356
    x[44]     c2        775
    x[44]     c3        818
    x[44]     c4        368
    x[44]     c5        14
    x[44]     OBJ       -789
    x[45]     c1_1      244
    x[45]     c2_1      278
    x[45]     c3_1      968
    x[45]     c4_1      445
    x[45]     c5_1      76
    x[45]     c1        404
    x[45]     c2        191
    x[45]     c3        998
    x[45]     c4        156
    x[45]     c5        581
    x[45]     OBJ       -524
    x[46]     c1_1      781
    x[46]     c2_1      741
    x[46]     c3_1      113
    x[46]     c4_1      449
    x[46]     c5_1      660
    x[46]     c1        79
    x[46]     c2        217
    x[46]     c3        654
    x[46]     c4        68
    x[46]     c5        291
    x[46]     OBJ       -1042
    x[47]     c1_1      86
    x[47]     c2_1      297
    x[47]     c3_1      486
    x[47]     c4_1      740
    x[47]     c5_1      500
    x[47]     c1        833
    x[47]     c2        181
    x[47]     c3        32
    x[47]     c4        99
    x[47]     c5        159
    x[47]     OBJ       -629
    x[48]     c1_1      622
    x[48]     c2_1      967
    x[48]     c3_1      710
    x[48]     c4_1      592
    x[48]     c5_1      915
    x[48]     c1        616
    x[48]     c2        750
    x[48]     c3        469
    x[48]     c4        554
    x[48]     c5        108
    x[48]     OBJ       -831
    x[49]     c1_1      665
    x[49]     c2_1      86
    x[49]     c3_1      439
    x[49]     c4_1      327
    x[49]     c5_1      897
    x[49]     c1        575
    x[49]     c2        890
    x[49]     c3        618
    x[49]     c4        145
    x[49]     c5        702
    x[49]     OBJ       -506
    x[50]     c1_1      155
    x[50]     c2_1      249
    x[50]     c3_1      747
    x[50]     c4_1      167
    x[50]     c5_1      25
    x[50]     c1        987
    x[50]     c2        776
    x[50]     c3        781
    x[50]     c4        319
    x[50]     c5        454
    x[50]     OBJ       -201
    x[51]     c1_1      680
    x[51]     c2_1      354
    x[51]     c3_1      174
    x[51]     c4_1      368
    x[51]     c5_1      716
    x[51]     c1        340
    x[51]     c2        484
    x[51]     c3        944
    x[51]     c4        303
    x[51]     c5        251
    x[51]     OBJ       -563
    x[52]     c1_1      101
    x[52]     c2_1      614
    x[52]     c3_1      260
    x[52]     c4_1      335
    x[52]     c5_1      557
    x[52]     c1        794
    x[52]     c2        655
    x[52]     c3        499
    x[52]     c4        423
    x[52]     c5        385
    x[52]     OBJ       -319
    x[53]     c1_1      665
    x[53]     c2_1      836
    x[53]     c3_1      877
    x[53]     c4_1      179
    x[53]     c5_1      72
    x[53]     c1        321
    x[53]     c2        662
    x[53]     c3        860
    x[53]     c4        257
    x[53]     c5        537
    x[53]     OBJ       -540
    x[54]     c1_1      227
    x[54]     c2_1      290
    x[54]     c3_1      474
    x[54]     c4_1      909
    x[54]     c5_1      696
    x[54]     c1        337
    x[54]     c2        662
    x[54]     c3        216
    x[54]     c4        348
    x[54]     c5        337
    x[54]     OBJ       -943
    x[55]     c1_1      597
    x[55]     c2_1      893
    x[55]     c3_1      841
    x[55]     c4_1      825
    x[55]     c5_1      653
    x[55]     c1        580
    x[55]     c2        995
    x[55]     c3        499
    x[55]     c4        915
    x[55]     c5        675
    x[55]     OBJ       -466
    x[56]     c1_1      354
    x[56]     c2_1      857
    x[56]     c3_1      422
    x[56]     c4_1      614
    x[56]     c5_1      933
    x[56]     c1        920
    x[56]     c2        248
    x[56]     c3        695
    x[56]     c4        905
    x[56]     c5        787
    x[56]     OBJ       -334
    x[57]     c1_1      597
    x[57]     c2_1      158
    x[57]     c3_1      280
    x[57]     c4_1      987
    x[57]     c5_1      420
    x[57]     c1        425
    x[57]     c2        718
    x[57]     c3        231
    x[57]     c4        684
    x[57]     c5        970
    x[57]     OBJ       -774
    x[58]     c1_1      79
    x[58]     c2_1      869
    x[58]     c3_1      684
    x[58]     c4_1      350
    x[58]     c5_1      582
    x[58]     c1        170
    x[58]     c2        321
    x[58]     c3        776
    x[58]     c4        562
    x[58]     c5        822
    x[58]     OBJ       -792
    x[59]     c1_1      162
    x[59]     c2_1      206
    x[59]     c3_1      330
    x[59]     c4_1      179
    x[59]     c5_1      810
    x[59]     c1        955
    x[59]     c2        533
    x[59]     c3        121
    x[59]     c4        217
    x[59]     c5        528
    x[59]     OBJ       -638
    x[60]     c1_1      998
    x[60]     c2_1      504
    x[60]     c3_1      910
    x[60]     c4_1      415
    x[60]     c5_1      861
    x[60]     c1        581
    x[60]     c2        391
    x[60]     c3        703
    x[60]     c4        471
    x[60]     c5        782
    x[60]     OBJ       -666
    x[61]     c1_1      849
    x[61]     c2_1      799
    x[61]     c3_1      791
    x[61]     c4_1      821
    x[61]     c5_1      758
    x[61]     c1        739
    x[61]     c2        81
    x[61]     c3        876
    x[61]     c4        532
    x[61]     c5        29
    x[61]     OBJ       -1092
    x[62]     c1_1      136
    x[62]     c2_1      758
    x[62]     c3_1      322
    x[62]     c4_1      525
    x[62]     c5_1      647
    x[62]     c1        622
    x[62]     c2        253
    x[62]     c3        260
    x[62]     c4        334
    x[62]     c5        81
    x[62]     OBJ       -641
    x[63]     c1_1      112
    x[63]     c2_1      431
    x[63]     c3_1      404
    x[63]     c4_1      774
    x[63]     c5_1      237
    x[63]     c1        473
    x[63]     c2        879
    x[63]     c3        938
    x[63]     c4        601
    x[63]     c5        430
    x[63]     OBJ       -420
    x[64]     c1_1      751
    x[64]     c2_1      580
    x[64]     c3_1      403
    x[64]     c4_1      283
    x[64]     c5_1      631
    x[64]     c1        789
    x[64]     c2        540
    x[64]     c3        643
    x[64]     c4        729
    x[64]     c5        957
    x[64]     OBJ       -469
    x[65]     c1_1      735
    x[65]     c2_1      780
    x[65]     c3_1      519
    x[65]     c4_1      427
    x[65]     c5_1      271
    x[65]     c1        946
    x[65]     c2        959
    x[65]     c3        746
    x[65]     c4        566
    x[65]     c5        599
    x[65]     OBJ       -380
    x[66]     c1_1      884
    x[66]     c2_1      788
    x[66]     c3_1      148
    x[66]     c4_1      275
    x[66]     c5_1      91
    x[66]     c1        499
    x[66]     c2        118
    x[66]     c3        967
    x[66]     c4        886
    x[66]     c5        52
    x[66]     OBJ       -743
    x[67]     c1_1      71
    x[67]     c2_1      583
    x[67]     c3_1      948
    x[67]     c4_1      659
    x[67]     c5_1      75
    x[67]     c1        666
    x[67]     c2        989
    x[67]     c3        360
    x[67]     c4        824
    x[67]     c5        314
    x[67]     OBJ       -492
    x[68]     c1_1      449
    x[68]     c2_1      641
    x[68]     c3_1      414
    x[68]     c4_1      392
    x[68]     c5_1      756
    x[68]     c1        546
    x[68]     c2        781
    x[68]     c3        630
    x[68]     c4        253
    x[68]     c5        180
    x[68]     OBJ       -449
    x[69]     c1_1      266
    x[69]     c2_1      32
    x[69]     c3_1      894
    x[69]     c4_1      73
    x[69]     c5_1      409
    x[69]     c1        630
    x[69]     c2        678
    x[69]     c3        46
    x[69]     c4        606
    x[69]     c5        877
    x[69]     OBJ       -562
    x[70]     c1_1      420
    x[70]     c2_1      653
    x[70]     c3_1      147
    x[70]     c4_1      896
    x[70]     c5_1      440
    x[70]     c1        997
    x[70]     c2        787
    x[70]     c3        555
    x[70]     c4        618
    x[70]     c5        28
    x[70]     OBJ       -716
    x[71]     c1_1      797
    x[71]     c2_1      252
    x[71]     c3_1      73
    x[71]     c4_1      68
    x[71]     c5_1      483
    x[71]     c1        462
    x[71]     c2        424
    x[71]     c3        818
    x[71]     c4        418
    x[71]     c5        115
    x[71]     OBJ       -527
    x[72]     c1_1      945
    x[72]     c2_1      709
    x[72]     c3_1      297
    x[72]     c4_1      982
    x[72]     c5_1      336
    x[72]     c1        750
    x[72]     c2        721
    x[72]     c3        52
    x[72]     c4        217
    x[72]     c5        483
    x[72]     OBJ       -1045
    x[73]     c1_1      746
    x[73]     c2_1      129
    x[73]     c3_1      97
    x[73]     c4_1      697
    x[73]     c5_1      765
    x[73]     c1        841
    x[73]     c2        623
    x[73]     c3        6
    x[73]     c4        153
    x[73]     c5        451
    x[73]     OBJ       -765
    x[74]     c1_1      46
    x[74]     c2_1      368
    x[74]     c3_1      651
    x[74]     c4_1      421
    x[74]     c5_1      637
    x[74]     c1        795
    x[74]     c2        833
    x[74]     c3        331
    x[74]     c4        725
    x[74]     c5        434
    x[74]     OBJ       -507
    x[75]     c1_1      44
    x[75]     c2_1      440
    x[75]     c3_1      380
    x[75]     c4_1      246
    x[75]     c5_1      981
    x[75]     c1        2
    x[75]     c2        986
    x[75]     c3        24
    x[75]     c4        701
    x[75]     c5        494
    x[75]     OBJ       -594
    x[76]     c1_1      545
    x[76]     c2_1      314
    x[76]     c3_1      67
    x[76]     c4_1      672
    x[76]     c5_1      980
    x[76]     c1        522
    x[76]     c2        141
    x[76]     c3        328
    x[76]     c4        451
    x[76]     c5        849
    x[76]     OBJ       -602
    x[77]     c1_1      882
    x[77]     c2_1      287
    x[77]     c3_1      582
    x[77]     c4_1      649
    x[77]     c5_1      202
    x[77]     c1        778
    x[77]     c2        66
    x[77]     c3        749
    x[77]     c4        402
    x[77]     c5        212
    x[77]     OBJ       -652
    x[78]     c1_1      72
    x[78]     c2_1      854
    x[78]     c3_1      973
    x[78]     c4_1      731
    x[78]     c5_1      35
    x[78]     c1        42
    x[78]     c2        983
    x[78]     c3        206
    x[78]     c4        372
    x[78]     c5        520
    x[78]     OBJ       -715
    x[79]     c1_1      383
    x[79]     c2_1      460
    x[79]     c3_1      143
    x[79]     c4_1      191
    x[79]     c5_1      594
    x[79]     c1        714
    x[79]     c2        449
    x[79]     c3        906
    x[79]     c4        820
    x[79]     c5        178
    x[79]     OBJ       -584
    x[80]     c1_1      714
    x[80]     c2_1      594
    x[80]     c3_1      732
    x[80]     c4_1      514
    x[80]     c5_1      689
    x[80]     c1        645
    x[80]     c2        654
    x[80]     c3        346
    x[80]     c4        111
    x[80]     c5        354
    x[80]     OBJ       -848
    x[81]     c1_1      987
    x[81]     c2_1      512
    x[81]     c3_1      624
    x[81]     c4_1      983
    x[81]     c5_1      602
    x[81]     c1        855
    x[81]     c2        458
    x[81]     c3        104
    x[81]     c4        770
    x[81]     c5        251
    x[81]     OBJ       -1092
    x[82]     c1_1      183
    x[82]     c2_1      239
    x[82]     c3_1      518
    x[82]     c4_1      886
    x[82]     c5_1      76
    x[82]     c1        396
    x[82]     c2        675
    x[82]     c3        415
    x[82]     c4        205
    x[82]     c5        72
    x[82]     OBJ       -920
    x[83]     c1_1      731
    x[83]     c2_1      719
    x[83]     c3_1      847
    x[83]     c4_1      95
    x[83]     c5_1      767
    x[83]     c1        768
    x[83]     c2        515
    x[83]     c3        680
    x[83]     c4        698
    x[83]     c5        770
    x[83]     OBJ       -344
    x[84]     c1_1      301
    x[84]     c2_1      751
    x[84]     c3_1      113
    x[84]     c4_1      846
    x[84]     c5_1      693
    x[84]     c1        392
    x[84]     c2        718
    x[84]     c3        187
    x[84]     c4        976
    x[84]     c5        806
    x[84]     OBJ       -681
    x[85]     c1_1      718
    x[85]     c2_1      708
    x[85]     c3_1      382
    x[85]     c4_1      689
    x[85]     c5_1      893
    x[85]     c1        141
    x[85]     c2        486
    x[85]     c3        220
    x[85]     c4        370
    x[85]     c5        580
    x[85]     OBJ       -953
    x[86]     c1_1      91
    x[86]     c2_1      670
    x[86]     c3_1      97
    x[86]     c4_1      206
    x[86]     c5_1      160
    x[86]     c1        544
    x[86]     c2        881
    x[86]     c3        255
    x[86]     c4        449
    x[86]     c5        97
    x[86]     OBJ       -205
    x[87]     c1_1      109
    x[87]     c2_1      269
    x[87]     c3_1      905
    x[87]     c4_1      417
    x[87]     c5_1      785
    x[87]     c1        847
    x[87]     c2        726
    x[87]     c3        122
    x[87]     c4        378
    x[87]     c5        80
    x[87]     OBJ       -736
    x[88]     c1_1      567
    x[88]     c2_1      832
    x[88]     c3_1      398
    x[88]     c4_1      14
    x[88]     c5_1      311
    x[88]     c1        263
    x[88]     c2        386
    x[88]     c3        51
    x[88]     c4        633
    x[88]     c5        821
    x[88]     OBJ       -582
    x[89]     c1_1      708
    x[89]     c2_1      137
    x[89]     c3_1      859
    x[89]     c4_1      735
    x[89]     c5_1      417
    x[89]     c1        325
    x[89]     c2        796
    x[89]     c3        231
    x[89]     c4        566
    x[89]     c5        379
    x[89]     OBJ       -556
    x[90]     c1_1      507
    x[90]     c2_1      356
    x[90]     c3_1      4
    x[90]     c4_1      267
    x[90]     c5_1      748
    x[90]     c1        227
    x[90]     c2        229
    x[90]     c3        536
    x[90]     c4        240
    x[90]     c5        635
    x[90]     OBJ       -561
    x[91]     c1_1      983
    x[91]     c2_1      960
    x[91]     c3_1      142
    x[91]     c4_1      822
    x[91]     c5_1      375
    x[91]     c1        765
    x[91]     c2        398
    x[91]     c3        897
    x[91]     c4        13
    x[91]     c5        508
    x[91]     OBJ       -899
    x[92]     c1_1      808
    x[92]     c2_1      651
    x[92]     c3_1      110
    x[92]     c4_1      977
    x[92]     c5_1      362
    x[92]     c1        128
    x[92]     c2        335
    x[92]     c3        727
    x[92]     c4        689
    x[92]     c5        988
    x[92]     OBJ       -574
    x[93]     c1_1      766
    x[93]     c2_1      398
    x[93]     c3_1      11
    x[93]     c4_1      302
    x[93]     c5_1      617
    x[93]     c1        10
    x[93]     c2        624
    x[93]     c3        782
    x[93]     c4        385
    x[93]     c5        748
    x[93]     OBJ       -631
    x[94]     c1_1      615
    x[94]     c2_1      893
    x[94]     c3_1      213
    x[94]     c4_1      687
    x[94]     c5_1      553
    x[94]     c1        973
    x[94]     c2        283
    x[94]     c3        113
    x[94]     c4        319
    x[94]     c5        542
    x[94]     OBJ       -853
    x[95]     c1_1      554
    x[95]     c2_1      407
    x[95]     c3_1      398
    x[95]     c4_1      118
    x[95]     c5_1      474
    x[95]     c1        162
    x[95]     c2        182
    x[95]     c3        947
    x[95]     c4        341
    x[95]     c5        41
    x[95]     OBJ       -678
    x[96]     c1_1      282
    x[96]     c2_1      477
    x[96]     c3_1      173
    x[96]     c4_1      990
    x[96]     c5_1      915
    x[96]     c1        743
    x[96]     c2        589
    x[96]     c3        206
    x[96]     c4        863
    x[96]     c5        451
    x[96]     OBJ       -542
    x[97]     c1_1      995
    x[97]     c2_1      552
    x[97]     c3_1      106
    x[97]     c4_1      323
    x[97]     c5_1      457
    x[97]     c1        208
    x[97]     c2        153
    x[97]     c3        566
    x[97]     c4        462
    x[97]     c5        87
    x[97]     OBJ       -835
    x[98]     c1_1      946
    x[98]     c2_1      805
    x[98]     c3_1      331
    x[98]     c4_1      993
    x[98]     c5_1      261
    x[98]     c1        223
    x[98]     c2        945
    x[98]     c3        738
    x[98]     c4        630
    x[98]     c5        107
    x[98]     OBJ       -839
    x[99]     c1_1      651
    x[99]     c2_1      881
    x[99]     c3_1      254
    x[99]     c4_1      525
    x[99]     c5_1      350
    x[99]     c1        981
    x[99]     c2        272
    x[99]     c3        733
    x[99]     c4        91
    x[99]     c5        658
    x[99]     OBJ       -591
    x[100]    c1_1      298
    x[100]    c2_1      850
    x[100]    c3_1      447
    x[100]    c4_1      322
    x[100]    c5_1      635
    x[100]    c1        143
    x[100]    c2        849
    x[100]    c3        891
    x[100]    c4        525
    x[100]    c5        636
    x[100]    OBJ       -341
RHS
    rhs       c1_1      11927
    rhs       c2_1      13727
    rhs       c3_1      11551
    rhs       c4_1      13056
    rhs       c5_1      13460
    rhs       c1        13162
    rhs       c2        13388
    rhs       c3        12431
    rhs       c4        12309
    rhs       c5        10949
RANGES
BOUNDS
 LO bounds    ss[1]     0
 PL bounds    ss[1]
 LO bounds    ss[2]     0
 PL bounds    ss[2]
 LO bounds    ss[3]     0
 PL bounds    ss[3]
 LO bounds    ss[4]     0
 PL bounds    ss[4]
 LO bounds    ss[5]     0
 PL bounds    ss[5]
 MI bounds    s[1]
 UP bounds    s[1]      0
 MI bounds    s[2]
 UP bounds    s[2]      0
 MI bounds    s[3]
 UP bounds    s[3]      0
 MI bounds    s[4]
 UP bounds    s[4]      0
 MI bounds    s[5]
 UP bounds    s[5]      0
 BV bounds    x[1]
 BV bounds    x[2]
 BV bounds    x[3]
 BV bounds    x[4]
 BV bounds    x[5]
 BV bounds    x[6]
 BV bounds    x[7]
 BV bounds    x[8]
 BV bounds    x[9]
 BV bounds    x[10]
 BV bounds    x[11]
 BV bounds    x[12]
 BV bounds    x[13]
 BV bounds    x[14]
 BV bounds    x[15]
 BV bounds    x[16]
 BV bounds    x[17]
 BV bounds    x[18]
 BV bounds    x[19]
 BV bounds    x[20]
 BV bounds    x[21]
 BV bounds    x[22]
 BV bounds    x[23]
 BV bounds    x[24]
 BV bounds    x[25]
 BV bounds    x[26]
 BV bounds    x[27]
 BV bounds    x[28]
 BV bounds    x[29]
 BV bounds    x[30]
 BV bounds    x[31]
 BV bounds    x[32]
 BV bounds    x[33]
 BV bounds    x[34]
 BV bounds    x[35]
 BV bounds    x[36]
 BV bounds    x[37]
 BV bounds    x[38]
 BV bounds    x[39]
 BV bounds    x[40]
 BV bounds    x[41]
 BV bounds    x[42]
 BV bounds    x[43]
 BV bounds    x[44]
 BV bounds    x[45]
 BV bounds    x[46]
 BV bounds    x[47]
 BV bounds    x[48]
 BV bounds    x[49]
 BV bounds    x[50]
 BV bounds    x[51]
 BV bounds    x[52]
 BV bounds    x[53]
 BV bounds    x[54]
 BV bounds    x[55]
 BV bounds    x[56]
 BV bounds    x[57]
 BV bounds    x[58]
 BV bounds    x[59]
 BV bounds    x[60]
 BV bounds    x[61]
 BV bounds    x[62]
 BV bounds    x[63]
 BV bounds    x[64]
 BV bounds    x[65]
 BV bounds    x[66]
 BV bounds    x[67]
 BV bounds    x[68]
 BV bounds    x[69]
 BV bounds    x[70]
 BV bounds    x[71]
 BV bounds    x[72]
 BV bounds    x[73]
 BV bounds    x[74]
 BV bounds    x[75]
 BV bounds    x[76]
 BV bounds    x[77]
 BV bounds    x[78]
 BV bounds    x[79]
 BV bounds    x[80]
 BV bounds    x[81]
 BV bounds    x[82]
 BV bounds    x[83]
 BV bounds    x[84]
 BV bounds    x[85]
 BV bounds    x[86]
 BV bounds    x[87]
 BV bounds    x[88]
 BV bounds    x[89]
 BV bounds    x[90]
 BV bounds    x[91]
 BV bounds    x[92]
 BV bounds    x[93]
 BV bounds    x[94]
 BV bounds    x[95]
 BV bounds    x[96]
 BV bounds    x[97]
 BV bounds    x[98]
 BV bounds    x[99]
 BV bounds    x[100]
ENDATA
